N = 11;
H = 5;
T = 2;

avail = array3d(1..N, 1..H, 1..T, [8, 3, 1, 9, 3, 4, 9, 9, 8, 4, 1, 0, 3, 4, 2, 8, 3, 3, 2, 5, 10, 7, 4, 10, 6, 5, 8, 3, 6, 0, 0, 7, 8, 8, 6, 0, 5, 1, 8, 0, 4, 3, 3, 1, 3, 6, 4, 10, 7, 5, 10, 6, 2, 3, 9, 4, 0, 6, 7, 8, 2, 10, 5, 4, 4, 9, 5, 7, 3, 5, 4, 2, 7, 4, 6, 9, 3, 0, 6, 3, 4, 7, 2, 9, 5, 10, 9, 6, 3, 7, 10, 6, 1, 0, 1, 8, 7, 9, 9, 7, 4, 9, 6, 6, 0, 5, 4, 8, 4, 2]);

r = array2d(1..H, 1..T, [5, 0, 1, 3, 2, 2, 2, 4, 4, 2]);
